projected/problems_b25_r0_d7_m100_s666/_DIMACS/b25_d7_r0_s666_013.cnf
p cnf 256 483 25
c p show 1 2 3 4 5 6 7 8 9 10 11 12 13 14 15 16 17 18 19 20 21 22 23 24 25
-26 -13 13 0
-27 5 0
-27 -17 0
-28 27 0
-28 26 0
-29 -6 6 0
-30 22 0
-30 5 0
-31 30 29 0
-32 31 28 0
-33 -3 0
-33 -1 0
-34 1 0
-34 7 0
-35 34 33 0
-36 22 0
-36 19 0
-37 3 0
-37 12 0
-38 37 36 0
-39 38 35 0
-40 39 32 0
-41 -20 1 0
-42 5 0
-42 -8 0
-43 42 0
-43 41 0
-44 18 0
-44 -12 0
-45 3 -18 0
-46 45 44 0
-47 46 43 0
-48 4 0
-48 -21 0
-49 21 0
-49 -4 0
-50 49 48 0
-51 24 -18 0
-52 51 0
-52 50 0
-53 16 -8 0
-54 2 -6 0
-55 54 0
-55 53 0
-56 55 52 0
-57 56 0
-57 47 0
-58 57 0
-58 40 0
-59 7 0
-59 -5 0
-60 6 0
-60 1 0
-61 60 59 0
-62 -25 0
-62 18 0
-63 -4 -5 0
-64 63 0
-64 62 0
-65 64 61 0
-66 -4 0
-66 -14 0
-67 17 0
-67 -21 0
-68 67 66 0
-69 18 -1 0
-70 -24 0
-70 -5 0
-71 70 0
-71 69 0
-72 71 68 0
-73 72 65 0
-74 -16 0
-74 -15 0
-75 -11 8 0
-76 75 0
-76 74 0
-77 2 24 0
-78 2 0
-78 -19 0
-79 78 77 0
-80 79 0
-80 76 0
-81 -7 0
-81 10 0
-82 5 0
-82 -12 0
-83 82 81 0
-84 6 -16 0
-85 -9 21 0
-86 85 84 0
-87 86 83 0
-88 87 0
-88 80 0
-89 88 0
-89 73 0
-90 89 0
-90 58 0
-91 -7 5 0
-92 -6 -1 0
-93 92 0
-93 91 0
-94 25 -18 0
-95 4 0
-95 5 0
-96 95 94 0
-97 96 0
-97 93 0
-98 4 14 0
-99 -17 21 0
-100 99 0
-100 98 0
-101 -18 0
-101 1 0
-102 24 5 0
-103 102 101 0
-104 103 0
-104 100 0
-105 104 0
-105 97 0
-106 16 15 0
-107 11 0
-107 -8 0
-108 107 106 0
-109 -2 0
-109 -24 0
-110 -2 19 0
-111 110 0
-111 109 0
-112 111 108 0
-113 7 -10 0
-114 -5 12 0
-115 114 0
-115 113 0
-116 -6 0
-116 16 0
-117 9 0
-117 -21 0
-118 117 0
-118 116 0
-119 118 0
-119 115 0
-120 119 112 0
-121 120 105 0
-122 13 0
-122 -13 0
-123 -5 17 0
-124 123 122 0
-125 6 0
-125 -6 0
-126 -22 -5 0
-127 126 0
-127 125 0
-128 127 0
-128 124 0
-129 3 1 0
-130 -1 -7 0
-131 130 0
-131 129 0
-132 -22 -19 0
-133 -3 -12 0
-134 133 0
-134 132 0
-135 134 0
-135 131 0
-136 135 0
-136 128 0
-137 20 0
-137 -1 0
-138 -5 8 0
-139 138 137 0
-140 -18 12 0
-141 -3 0
-141 18 0
-142 141 0
-142 140 0
-143 142 0
-143 139 0
-144 -4 21 0
-145 -21 4 0
-146 145 0
-146 144 0
-147 -24 0
-147 18 0
-148 147 146 0
-149 -16 0
-149 8 0
-150 -2 0
-150 6 0
-151 150 149 0
-152 151 0
-152 148 0
-153 152 143 0
-154 153 136 0
-155 154 0
-155 121 0
-156 155 90 0
-157 22 0
-157 -21 0
-158 9 -12 0
-159 158 0
-159 157 0
-160 -23 0
-160 25 0
-161 4 0
-161 -4 0
-162 161 160 0
-163 162 0
-163 159 0
-164 19 -25 0
-165 10 -7 0
-166 113 0
-166 165 0
-167 166 164 0
-168 -10 0
-168 7 0
-169 81 168 0
-170 -19 0
-170 25 0
-171 170 169 0
-172 171 0
-172 167 0
-173 8 0
-173 -13 0
-174 -4 24 0
-175 174 0
-175 173 0
-176 175 172 0
-177 176 0
-177 163 0
-178 19 -19 0
-179 -1 -23 0
-180 179 0
-180 178 0
-181 19 0
-181 -15 0
-182 4 3 0
-183 182 0
-183 181 0
-184 183 180 0
-185 -19 15 0
-186 -4 0
-186 -3 0
-187 186 185 0
-188 -19 0
-188 19 0
-189 1 0
-189 23 0
-190 189 188 0
-191 190 187 0
-192 191 0
-192 184 0
-193 15 0
-193 23 0
-194 -4 0
-194 -13 0
-195 194 0
-195 193 0
-196 -11 0
-196 -7 0
-197 -3 0
-197 -21 0
-198 197 196 0
-199 198 0
-199 195 0
-200 199 192 0
-201 -15 -23 0
-202 4 13 0
-203 202 201 0
-204 11 7 0
-205 3 21 0
-206 205 0
-206 204 0
-207 206 203 0
-208 187 0
-208 190 0
-209 180 0
-209 183 0
-210 209 208 0
-211 210 207 0
-212 211 0
-212 200 0
-213 212 177 0
-214 5 0
-214 -1 0
-215 14 0
-215 4 0
-216 66 215 0
-217 216 0
-217 214 0
-218 1 0
-218 14 0
-219 16 -11 0
-220 219 0
-220 218 0
-221 220 0
-221 217 0
-222 2 13 0
-223 20 5 0
-224 223 0
-224 222 0
-225 -9 0
-225 -22 0
-226 -2 0
-226 25 0
-227 226 225 0
-228 227 0
-228 224 0
-229 228 221 0
-230 8 -7 0
-231 17 0
-231 -15 0
-232 15 0
-232 -17 0
-233 232 231 0
-234 233 230 0
-235 -12 -25 0
-236 -7 24 0
-237 236 235 0
-238 237 0
-238 234 0
-239 -18 -21 0
-240 -20 -25 0
-241 240 0
-241 239 0
-242 -8 0
-242 23 0
-243 1 -7 0
-244 243 242 0
-245 244 0
-245 241 0
-246 8 -23 0
-247 -1 0
-247 7 0
-248 247 0
-248 246 0
-249 18 0
-249 21 0
-250 20 0
-250 25 0
-251 250 249 0
-252 251 0
-252 248 0
-253 252 245 0
-254 253 0
-254 238 0
-255 254 229 0
-256 255 0
-256 213 0
256 156 0
-91 -59 0
-59 -91 0
-92 -60 0
-60 -92 0
-61 -93 0
-62 -94 0
-94 -62 0
-95 -63 0
-96 -64 0
-64 -96 0
-65 -97 0
-97 -65 0
-66 -98 0
-99 -67 0
-67 -99 0
-68 -100 0
-100 -68 0
-101 -69 0
-70 -102 0
-102 -70 0
-103 -71 0
-104 -72 0
-105 -73 0
-73 -105 0
-74 -106 0
-106 -74 0
-75 -107 0
-107 -75 0
-108 -76 0
-76 -108 0
-109 -77 0
-78 -110 0
-110 -78 0
-111 -79 0
-79 -111 0
-80 -112 0
-81 -113 0
-114 -82 0
-82 -114 0
-83 -115 0
-115 -83 0
-116 -84 0
-117 -85 0
-118 -86 0
-119 -87 0
-87 -119 0
-88 -120 0
-89 -121 0
-26 -122 0
-123 -27 0
-27 -123 0
-28 -124 0
-125 -29 0
-29 -125 0
-126 -30 0
-30 -126 0
-31 -127 0
-32 -128 0
-128 -32 0
-129 -33 0
-33 -129 0
-130 -34 0
-34 -130 0
-35 -131 0
-131 -35 0
-132 -36 0
-36 -132 0
-37 -133 0
-38 -134 0
-134 -38 0
-135 -39 0
-136 -40 0
-40 -136 0
-137 -41 0
-41 -137 0
-138 -42 0
-42 -138 0
-43 -139 0
-140 -44 0
-44 -140 0
-141 -45 0
-45 -141 0
-46 -142 0
-47 -143 0
-143 -47 0
-146 -50 0
-50 -146 0
-147 -51 0
-51 -147 0
-52 -148 0
-148 -52 0
-149 -53 0
-150 -54 0
-151 -55 0
-152 -56 0
-153 -57 0
-57 -153 0
-58 -154 0
-154 -58 0
-166 -169 0
-169 -166 0
-170 -164 0
-164 -170 0
-193 -201 0
-201 -193 0
-202 -194 0
-203 -195 0
-196 -204 0
-204 -196 0
-197 -205 0
-205 -197 0
-206 -198 0
-207 -199 0
-185 -181 0
-181 -185 0
-182 -186 0
-183 -187 0
-187 -183 0
-188 -178 0
-178 -188 0
-179 -189 0
-180 -190 0
-192 -210 0
-246 -242 0
-242 -246 0
-247 -243 0
-243 -247 0
-244 -248 0
-239 -249 0
-250 -240 0
-240 -250 0
-241 -251 0
-251 -241 0
