projected/problems_b25_r0_d7_m100_s666/b25_d7_r0_s666_013.smt2
(set-logic QF_UF)
(declare-fun A0 () Bool)
(declare-fun A1 () Bool)
(declare-fun A2 () Bool)
(declare-fun A3 () Bool)
(declare-fun A4 () Bool)
(declare-fun A5 () Bool)
(declare-fun A6 () Bool)
(declare-fun A7 () Bool)
(declare-fun A8 () Bool)
(declare-fun A9 () Bool)
(declare-fun A10 () Bool)
(declare-fun A11 () Bool)
(declare-fun A12 () Bool)
(declare-fun A13 () Bool)
(declare-fun A14 () Bool)
(declare-fun A15 () Bool)
(declare-fun A16 () Bool)
(declare-fun A17 () Bool)
(declare-fun A18 () Bool)
(declare-fun A19 () Bool)
(declare-fun A20 () Bool)
(declare-fun A21 () Bool)
(declare-fun A22 () Bool)
(declare-fun A23 () Bool)
(declare-fun A24 () Bool)
(assert (let ((.def_0 (not A6))) (let ((.def_1 (or .def_0 A4))) (let ((.def_2 (not .def_1))) (let ((.def_3 (not A0))) (let ((.def_4 (not A5))) (let ((.def_5 (or .def_4 .def_3))) (let ((.def_6 (not .def_5))) (let ((.def_7 (or .def_6 .def_2))) (let ((.def_8 (not A24))) (let ((.def_9 (and .def_8 A17))) (let ((.def_10 (not .def_9))) (let ((.def_11 (and A3 A4))) (let ((.def_12 (or .def_11 .def_10))) (let ((.def_13 (not .def_12))) (let ((.def_14 (or .def_13 .def_7))) (let ((.def_15 (not .def_14))) (let ((.def_16 (not A13))) (let ((.def_17 (not A3))) (let ((.def_18 (and .def_17 .def_16))) (let ((.def_19 (not A16))) (let ((.def_20 (or .def_19 A20))) (let ((.def_21 (not .def_20))) (let ((.def_22 (or .def_21 .def_18))) (let ((.def_23 (not .def_22))) (let ((.def_24 (not A17))) (let ((.def_25 (and .def_24 A0))) (let ((.def_26 (not A4))) (let ((.def_27 (not A23))) (let ((.def_28 (and .def_27 .def_26))) (let ((.def_29 (not .def_28))) (let ((.def_30 (or .def_29 .def_25))) (let ((.def_31 (and .def_30 .def_23))) (let ((.def_32 (and .def_31 .def_15))) (let ((.def_33 (not .def_32))) (let ((.def_34 (not A14))) (let ((.def_35 (not A15))) (let ((.def_36 (and .def_35 .def_34))) (let ((.def_37 (not .def_36))) (let ((.def_38 (not A10))) (let ((.def_39 (or .def_38 A7))) (let ((.def_40 (not .def_39))) (let ((.def_41 (or .def_40 .def_37))) (let ((.def_42 (not .def_41))) (let ((.def_43 (not A1))) (let ((.def_44 (and .def_43 .def_27))) (let ((.def_45 (not A18))) (let ((.def_46 (and A1 .def_45))) (let ((.def_47 (not .def_46))) (let ((.def_48 (and .def_47 .def_44))) (let ((.def_49 (not .def_48))) (let ((.def_50 (and .def_49 .def_42))) (let ((.def_51 (and .def_0 A9))) (let ((.def_52 (or .def_26 A11))) (let ((.def_53 (not .def_52))) (let ((.def_54 (or .def_53 .def_51))) (let ((.def_55 (not .def_54))) (let ((.def_56 (and .def_4 A15))) (let ((.def_57 (not A20))) (let ((.def_58 (and A8 .def_57))) (let ((.def_59 (and .def_58 .def_56))) (let ((.def_60 (and .def_59 .def_55))) (let ((.def_61 (not .def_60))) (let ((.def_62 (and .def_61 .def_50))) (let ((.def_63 (and .def_62 .def_33))) (let ((.def_64 (not A12))) (let ((.def_65 (or .def_64 A12))) (let ((.def_66 (or .def_26 A16))) (let ((.def_67 (not .def_66))) (let ((.def_68 (and .def_67 .def_65))) (let ((.def_69 (and A5 .def_4))) (let ((.def_70 (not .def_69))) (let ((.def_71 (not A21))) (let ((.def_72 (or .def_71 .def_26))) (let ((.def_73 (not .def_72))) (let ((.def_74 (or .def_73 .def_70))) (let ((.def_75 (or .def_74 .def_68))) (let ((.def_76 (not .def_75))) (let ((.def_77 (or A2 A0))) (let ((.def_78 (not .def_77))) (let ((.def_79 (or .def_3 .def_0))) (let ((.def_80 (not .def_79))) (let ((.def_81 (or .def_80 .def_78))) (let ((.def_82 (not .def_81))) (let ((.def_83 (or .def_71 .def_45))) (let ((.def_84 (not .def_83))) (let ((.def_85 (and A2 A11))) (let ((.def_86 (or .def_85 .def_84))) (let ((.def_87 (not .def_86))) (let ((.def_88 (and .def_87 .def_82))) (let ((.def_89 (and .def_88 .def_76))) (let ((.def_90 (not .def_89))) (let ((.def_91 (and A19 .def_3))) (let ((.def_92 (not .def_91))) (let ((.def_93 (or .def_26 A7))) (let ((.def_94 (not .def_93))) (let ((.def_95 (and .def_94 .def_92))) (let ((.def_96 (or .def_24 A11))) (let ((.def_97 (not .def_96))) (let ((.def_98 (not A2))) (let ((.def_99 (and .def_98 A17))) (let ((.def_100 (not .def_99))) (let ((.def_101 (or .def_100 .def_97))) (let ((.def_102 (or .def_101 .def_95))) (let ((.def_103 (not .def_102))) (let ((.def_104 (= A20 A3))) (let ((.def_105 (not .def_104))) (let ((.def_106 (and .def_27 A17))) (let ((.def_107 (not .def_106))) (let ((.def_108 (and .def_107 .def_105))) (let ((.def_109 (not .def_108))) (let ((.def_110 (and .def_35 A7))) (let ((.def_111 (and .def_43 A5))) (let ((.def_112 (or .def_111 .def_110))) (let ((.def_113 (and .def_112 .def_109))) (let ((.def_114 (or .def_113 .def_103))) (let ((.def_115 (not .def_114))) (let ((.def_116 (and .def_115 .def_90))) (let ((.def_117 (not .def_116))) (let ((.def_118 (= .def_117 .def_63))) (let ((.def_119 (or .def_71 A20))) (let ((.def_120 (not A11))) (let ((.def_121 (or A8 .def_120))) (let ((.def_122 (not .def_121))) (let ((.def_123 (or .def_122 .def_119))) (let ((.def_124 (not .def_123))) (let ((.def_125 (or A22 .def_8))) (let ((.def_126 (not .def_125))) (let ((.def_127 (or .def_17 A3))) (let ((.def_128 (not .def_127))) (let ((.def_129 (or .def_128 .def_126))) (let ((.def_130 (and .def_129 .def_124))) (let ((.def_131 (not .def_130))) (let ((.def_132 (not A9))) (let ((.def_133 (= .def_0 .def_132))) (let ((.def_134 (not .def_133))) (let ((.def_135 (and .def_45 A24))) (let ((.def_136 (not .def_135))) (let ((.def_137 (= .def_136 .def_134))) (let ((.def_138 (not A7))) (let ((.def_139 (or .def_138 A12))) (let ((.def_140 (and A3 .def_27))) (let ((.def_141 (or .def_140 .def_139))) (let ((.def_142 (not .def_141))) (let ((.def_143 (or .def_142 .def_137))) (let ((.def_144 (not .def_143))) (let ((.def_145 (or .def_144 .def_131))) (let ((.def_146 (not .def_145))) (let ((.def_147 (and A14 A22))) (let ((.def_148 (not .def_147))) (let ((.def_149 (or A3 A12))) (let ((.def_150 (or .def_149 .def_148))) (let ((.def_151 (and .def_38 .def_0))) (let ((.def_152 (not .def_151))) (let ((.def_153 (and .def_98 .def_57))) (let ((.def_154 (not .def_153))) (let ((.def_155 (and .def_154 .def_152))) (let ((.def_156 (or .def_155 .def_150))) (let ((.def_157 (or .def_45 A14))) (let ((.def_158 (not .def_157))) (let ((.def_159 (or A3 A2))) (let ((.def_160 (and .def_159 .def_158))) (let ((.def_161 (not .def_160))) (let ((.def_162 (and .def_45 A18))) (let ((.def_163 (not .def_162))) (let ((.def_164 (not A22))) (let ((.def_165 (or .def_3 .def_164))) (let ((.def_166 (and .def_165 .def_163))) (let ((.def_167 (= .def_166 .def_161))) (let ((.def_168 (= .def_167 .def_156))) (let ((.def_169 (or .def_168 .def_146))) (let ((.def_170 (not .def_169))) (let ((.def_171 (and A4 .def_3))) (let ((.def_172 (= .def_17 A13))) (let ((.def_173 (not .def_172))) (let ((.def_174 (and .def_173 .def_171))) (let ((.def_175 (not .def_174))) (let ((.def_176 (or .def_3 .def_16))) (let ((.def_177 (or A15 .def_38))) (let ((.def_178 (not .def_177))) (let ((.def_179 (or .def_178 .def_176))) (let ((.def_180 (or .def_179 .def_175))) (let ((.def_181 (not .def_180))) (let ((.def_182 (or A1 A12))) (let ((.def_183 (not A19))) (let ((.def_184 (and .def_183 .def_26))) (let ((.def_185 (not .def_184))) (let ((.def_186 (and .def_185 .def_182))) (let ((.def_187 (not .def_186))) (let ((.def_188 (not A8))) (let ((.def_189 (and .def_188 .def_71))) (let ((.def_190 (not .def_189))) (let ((.def_191 (or A1 .def_8))) (let ((.def_192 (and .def_191 .def_190))) (let ((.def_193 (or .def_192 .def_187))) (let ((.def_194 (not .def_193))) (let ((.def_195 (or .def_194 .def_181))) (let ((.def_196 (and .def_138 A6))) (let ((.def_197 (= A14 A16))) (let ((.def_198 (and .def_197 .def_196))) (let ((.def_199 (not .def_198))) (let ((.def_200 (and A11 A24))) (let ((.def_201 (and A6 .def_27))) (let ((.def_202 (and .def_201 .def_200))) (let ((.def_203 (not .def_202))) (let ((.def_204 (and .def_203 .def_199))) (let ((.def_205 (or A7 .def_164))) (let ((.def_206 (not .def_205))) (let ((.def_207 (and .def_3 A6))) (let ((.def_208 (not .def_207))) (let ((.def_209 (or .def_208 .def_206))) (let ((.def_210 (or .def_24 .def_57))) (let ((.def_211 (and A19 A24))) (let ((.def_212 (not .def_211))) (let ((.def_213 (and .def_212 .def_210))) (let ((.def_214 (not .def_213))) (let ((.def_215 (= .def_214 .def_209))) (let ((.def_216 (not .def_215))) (let ((.def_217 (and .def_216 .def_204))) (let ((.def_218 (or .def_217 .def_195))) (let ((.def_219 (not .def_218))) (let ((.def_220 (or .def_219 .def_170))) (let ((.def_221 (and .def_220 .def_118))) (let ((.def_222 (not .def_221))) .def_222))))))))))))))))))))))))))))))))))))))))))))))))))))))))))))))))))))))))))))))))))))))))))))))))))))))))))))))))))))))))))))))))))))))))))))))))))))))))))))))))))))))))))))))))))))))))))))))))))))))))))))))))))))))))))))))))
(check-sat)
